NAME : OMNETRUN
COMMENT : 524.61
TYPE : CVRP
DIMENSION : 3
EDGE_WEIGHT_TYPE : EUC_2D
CAPACITY : 3
NODE_COORD_SECTION
1 0.107093 -0.77924
2 143.71 -826.736
3 167.244 -1198.8
DEMAND_SECTION
1 0
2 1
3 1
DEPOT_SECTION
1
-1
EOF
